p edge 27 167
e 2 1
e 3 1
e 3 2
e 4 2
e 5 3
e 5 4
e 6 1
e 6 2
e 7 1
e 7 3
e 7 5
e 8 3
e 9 2
e 9 4
e 9 5
e 9 6
e 9 8
e 10 1
e 10 2
e 10 3
e 10 5
e 10 7
e 10 9
e 11 3
e 11 4
e 11 6
e 11 7
e 11 9
e 11 10
e 12 1
e 12 2
e 12 3
e 12 4
e 12 5
e 12 9
e 13 1
e 13 3
e 13 10
e 13 11
e 13 12
e 14 1
e 14 2
e 14 10
e 14 12
e 15 6
e 15 7
e 15 11
e 16 1
e 16 2
e 16 3
e 16 4
e 16 5
e 16 6
e 16 7
e 16 9
e 16 10
e 16 11
e 16 13
e 16 15
e 17 1
e 17 2
e 17 4
e 17 5
e 17 6
e 17 10
e 17 12
e 17 15
e 18 1
e 18 2
e 18 3
e 18 7
e 18 8
e 18 11
e 18 12
e 18 13
e 18 14
e 18 16
e 19 1
e 19 3
e 19 11
e 19 15
e 20 1
e 20 5
e 20 6
e 20 8
e 20 10
e 20 13
e 20 14
e 20 15
e 20 16
e 20 17
e 20 18
e 21 4
e 21 8
e 21 9
e 21 15
e 21 17
e 21 18
e 21 20
e 22 3
e 22 4
e 22 6
e 22 7
e 22 9
e 22 12
e 22 13
e 22 15
e 22 16
e 22 17
e 22 20
e 22 21
e 23 2
e 23 4
e 23 6
e 23 8
e 23 9
e 23 10
e 23 12
e 23 13
e 23 15
e 23 18
e 23 19
e 23 20
e 23 22
e 24 1
e 24 2
e 24 3
e 24 5
e 24 6
e 24 11
e 24 14
e 24 15
e 24 16
e 24 18
e 24 20
e 24 21
e 24 23
e 25 3
e 25 5
e 25 10
e 25 15
e 25 16
e 25 17
e 25 21
e 25 22
e 25 23
e 26 2
e 26 5
e 26 8
e 26 11
e 26 12
e 26 15
e 26 17
e 26 18
e 26 20
e 26 23
e 26 25
e 27 1
e 27 3
e 27 8
e 27 12
e 27 13
e 27 14
e 27 18
e 27 19
e 27 25
e 27 26
